Problem:    
Rows:       354
Columns:    129 (110 integer, 110 binary)
Non-zeros:  1125
Status:     INTEGER OPTIMAL
Objective:  value = 17.8235 (MINimum)

   No.   Row name        Activity     Lower bound   Upper bound
------ ------------    ------------- ------------- -------------
     1 r.5                         1             1             = 
     2 r.6                   1017.82             0               
     3 r.7                  -982.177      -996.226               
     4 r.8                   17.8235             0               
     5 r.9                   17.8235      -993.732               
     6 r.10                  1017.82             0               
     7 r.11                 -985.951      -997.419               
     8 r.12                  17.8235             0               
     9 r.13                  17.8235      -994.777               
    10 r.14                  1017.82             0               
    11 r.15                 -990.593      -996.677               
    12 r.16                  17.8235             0               
    13 r.17                  11.4682      -993.936               
    14 r.18                  17.8235             0               
    15 r.19                 -984.142      -997.353               
    16 r.20                  1017.82             0               
    17 r.21                 -982.177      -995.388               
    18 r.22                  17.8235             0               
    19 r.23                 -989.519      -996.806               
    20 r.24                  1017.82             0               
    21 r.25                 -986.789      -994.076               
    22 r.26                  1017.82             0               
    23 r.27                 -993.916      -994.989               
    24 r.28                  17.8235             0               
    25 r.29                   7.2875      -992.064               
    26 r.30                  1017.82             0               
    27 r.31                 -988.532      -998.147               
    28 r.32                  17.8235             0               
    29 r.33                  17.8235      -995.785               
    30 r.34                  17.8235             0               
    31 r.35                  -995.18      -996.253               
    32 r.36                  1017.82             0               
    33 r.37                 -992.713      -993.785               
    34 r.38                  1017.82             0               
    35 r.39                 -998.927      -998.927               
    36 r.40                  17.8235             0               
    37 r.41                   1.0726      -997.812               
    38 r.42                        1             1             = 
    39 r.43                        1             1             = 
    40 r.44                        1             1             = 
    41 r.45                        1             1             = 
    42 r.46                        1             1             = 
    43 r.47                        1             1             = 
    44 r.48                        1             1             = 
    45 r.49                        1             1             = 
    46 r.50                        1             1             = 
    47 r.51                        2             2               
    48 r.52                       -2         -1001               
    49 r.53                   -3.774      -997.419               
    50 r.54                     1000             2               
    51 r.55                    -1000         -1001               
    52 r.56                     2000      -994.777               
    53 r.57                        2             2               
    54 r.58                       -2         -1001               
    55 r.59                  -8.4164      -996.677               
    56 r.60                     1000             2               
    57 r.61                    -1000         -1001               
    58 r.62                  1993.64      -993.936               
    59 r.63                     1001             2               
    60 r.64                    -1001         -1001               
    61 r.65                  998.035      -997.353               
    62 r.66                     1001             2               
    63 r.67                    -1001         -1001               
    64 r.68                     2000      -995.388               
    65 r.69                     1001             2               
    66 r.70                    -1001         -1001               
    67 r.71                  992.658      -996.806               
    68 r.72                     1001             2               
    69 r.73                    -1001         -1001               
    70 r.74                  1995.39      -994.076               
    71 r.75                        2             2               
    72 r.76                       -2         -1001               
    73 r.77                 -11.7399      -994.989               
    74 r.78                     1000             2               
    75 r.79                    -1000         -1001               
    76 r.80                  1989.46      -992.064               
    77 r.81                        2             2               
    78 r.82                       -2         -1001               
    79 r.83                  -6.3553      -998.147               
    80 r.84                     1000             2               
    81 r.85                    -1000         -1001               
    82 r.86                     2000      -995.785               
    83 r.87                     1001             2               
    84 r.88                    -1001         -1001               
    85 r.89                  986.997      -996.253               
    86 r.90                     1001             2               
    87 r.91                    -1001         -1001               
    88 r.92                  1989.46      -993.785               
    89 r.93                 -983.249      -996.226               
    90 r.94                  16.7509      -993.732               
    91 r.95                 -983.249      -996.226               
    92 r.96                  16.7509      -993.732               
    93 r.97                        2             2               
    94 r.98                       -2         -1001               
    95 r.99                    3.774         3.774               
    96 r.100                    1000             2               
    97 r.101                   -1000         -1001               
    98 r.102                    2000        6.2676               
    99 r.103                -995.358      -997.419               
   100 r.104                  8.4164      -994.777               
   101 r.105                -997.419      -997.419               
   102 r.106                  6.3553      -994.777               
   103 r.107                    1001             2               
   104 r.108                   -1001         -1001               
   105 r.109                 1001.81      -997.353               
   106 r.110                    1001             2               
   107 r.111                   -1001         -1001               
   108 r.112                    2000      -995.388               
   109 r.113                    1001             2               
   110 r.114                   -1001         -1001               
   111 r.115                 996.432      -996.806               
   112 r.116                    1001             2               
   113 r.117                   -1001         -1001               
   114 r.118                 1995.39      -994.076               
   115 r.119                       2             2               
   116 r.120                      -2         -1001               
   117 r.121                 -7.9659      -994.989               
   118 r.122                    1000             2               
   119 r.123                   -1000         -1001               
   120 r.124                 1989.46      -992.064               
   121 r.125                       2             2               
   122 r.126                      -2         -1001               
   123 r.127                 -2.5813      -998.147               
   124 r.128                    1000             2               
   125 r.129                   -1000         -1001               
   126 r.130                    2000      -995.785               
   127 r.131                    1001             2               
   128 r.132                   -1001         -1001               
   129 r.133                 990.771      -996.253               
   130 r.134                    1001             2               
   131 r.135                   -1001         -1001               
   132 r.136                 1989.46      -993.785               
   133 r.137                       2             2               
   134 r.138                      -2         -1001               
   135 r.139                  8.4164         3.774               
   136 r.140                    1000             2               
   137 r.141                   -1000         -1001               
   138 r.142                 2006.36        6.2676               
   139 r.143                    1001             2               
   140 r.144                   -1001         -1001               
   141 r.145                 1006.45      -997.353               
   142 r.146                    1001             2               
   143 r.147                   -1001         -1001               
   144 r.148                 2006.36      -995.388               
   145 r.149                    1001             2               
   146 r.150                   -1001         -1001               
   147 r.151                 1001.07      -996.806               
   148 r.152                    1001             2               
   149 r.153                   -1001         -1001               
   150 r.154                 2001.74      -994.076               
   151 r.155                       2             2               
   152 r.156                      -2         -1001               
   153 r.157                 -3.3235      -994.989               
   154 r.158                    1000             2               
   155 r.159                   -1000         -1001               
   156 r.160                 1995.82      -992.064               
   157 r.161                       2             2               
   158 r.162                      -2         -1001               
   159 r.163                -997.939      -998.147               
   160 r.164                    1000             2               
   161 r.165                   -1000         -1001               
   162 r.166                 2006.36      -995.785               
   163 r.167                    1001             2               
   164 r.168                   -1001         -1001               
   165 r.169                 995.413      -996.253               
   166 r.170                    1001             2               
   167 r.171                   -1001         -1001               
   168 r.172                 1995.82      -993.785               
   169 r.173                -991.665      -996.677               
   170 r.174                 10.3956      -993.936               
   171 r.175                -991.665      -996.677               
   172 r.176                 10.3956      -993.936               
   173 r.177                    1001             2               
   174 r.178                   -1001         -1001               
   175 r.179                 3001.97         3.774               
   176 r.180                    1001             2               
   177 r.181                   -1001         -1001               
   178 r.182                    2000        6.2676               
   179 r.183                    1001             2               
   180 r.184                   -1001         -1001               
   181 r.185                 2998.19        2.5813               
   182 r.186                    1001             2               
   183 r.187                   -1001         -1001               
   184 r.188                    2000        5.2234               
   185 r.189                    1001             2               
   186 r.190                   -1001         -1001               
   187 r.191                 2993.55        3.3235               
   188 r.192                    1001             2               
   189 r.193                   -1001         -1001               
   190 r.194                 1993.64        6.0643               
   191 r.195                   5.377      -997.353               
   192 r.196                   7.342      -995.388               
   193 r.197                -997.353      -997.353               
   194 r.198                -995.388      -995.388               
   195 r.199                    1001             2               
   196 r.200                   -1001         -1001               
   197 r.201                 2995.61      -998.147               
   198 r.202                    1001             2               
   199 r.203                   -1001         -1001               
   200 r.204                    2000      -995.785               
   201 r.205                    1000             2               
   202 r.206                   -1000         -1001               
   203 r.207                 1988.96      -996.253               
   204 r.208                       2             2               
   205 r.209                      -2         -1001               
   206 r.210                 -10.536      -993.785               
   207 r.211                    1001             2               
   208 r.212                   -1001         -1001               
   209 r.213                 3007.34         3.774               
   210 r.214                    1001             2               
   211 r.215                   -1001         -1001               
   212 r.216                 2004.61        6.2676               
   213 r.217                    1001             2               
   214 r.218                   -1001         -1001               
   215 r.219                 3003.57        2.5813               
   216 r.220                    1001             2               
   217 r.221                   -1001         -1001               
   218 r.222                 2004.61        5.2234               
   219 r.223                    1001             2               
   220 r.224                   -1001         -1001               
   221 r.225                 2998.93        3.3235               
   222 r.226                    1001             2               
   223 r.227                   -1001         -1001               
   224 r.228                 1998.26        6.0643               
   225 r.229                -995.602      -996.806               
   226 r.230                -992.872      -994.076               
   227 r.231                -996.806      -996.806               
   228 r.232                -994.076      -994.076               
   229 r.233                    1001             2               
   230 r.234                   -1001         -1001               
   231 r.235                 3000.99      -998.147               
   232 r.236                    1001             2               
   233 r.237                   -1001         -1001               
   234 r.238                 2004.61      -995.785               
   235 r.239                    1000             2               
   236 r.240                   -1000         -1001               
   237 r.241                 1994.34      -996.253               
   238 r.242                       2             2               
   239 r.243                      -2         -1001               
   240 r.244                 -5.9238      -993.785               
   241 r.245                       2             2               
   242 r.246                      -2         -1001               
   243 r.247                 11.7399         3.774               
   244 r.248                    1000             2               
   245 r.249                   -1000         -1001               
   246 r.250                 2010.54        6.2676               
   247 r.251                       2             2               
   248 r.252                      -2         -1001               
   249 r.253                  7.9659        2.5813               
   250 r.254                    1000             2               
   251 r.255                   -1000         -1001               
   252 r.256                 2010.54        5.2234               
   253 r.257                       2             2               
   254 r.258                      -2         -1001               
   255 r.259                  3.3235        3.3235               
   256 r.260                    1000             2               
   257 r.261                   -1000         -1001               
   258 r.262                 2004.18        6.0643               
   259 r.263                       2             2               
   260 r.264                      -2         -1001               
   261 r.265                -994.615      -998.147               
   262 r.266                    1000             2               
   263 r.267                   -1000         -1001               
   264 r.268                 2010.54      -995.785               
   265 r.269                    1001             2               
   266 r.270                   -1001         -1001               
   267 r.271                 998.736      -996.253               
   268 r.272                    1001             2               
   269 r.273                   -1001         -1001               
   270 r.274                    2000      -993.785               
   271 r.275                -994.989      -994.989               
   272 r.276                  6.2149      -992.064               
   273 r.277                -994.989      -994.989               
   274 r.278                  6.2149      -992.064               
   275 r.279                       2             2               
   276 r.280                      -2         -1001               
   277 r.281                  6.3553         3.774               
   278 r.282                    1000             2               
   279 r.283                   -1000         -1001               
   280 r.284                    2000        6.2676               
   281 r.285                       2             2               
   282 r.286                      -2         -1001               
   283 r.287                  2.5813        2.5813               
   284 r.288                    1000             2               
   285 r.289                   -1000         -1001               
   286 r.290                    2000        5.2234               
   287 r.291                       2             2               
   288 r.292                      -2         -1001               
   289 r.293                 997.939        3.3235               
   290 r.294                    1000             2               
   291 r.295                   -1000         -1001               
   292 r.296                 1993.64        6.0643               
   293 r.297                    1001             2               
   294 r.298                   -1001         -1001               
   295 r.299                 1004.39        2.6472               
   296 r.300                    1001             2               
   297 r.301                   -1001         -1001               
   298 r.302                    2000        4.6122               
   299 r.303                    1001             2               
   300 r.304                   -1001         -1001               
   301 r.305                 999.013         3.194               
   302 r.306                    1001             2               
   303 r.307                   -1001         -1001               
   304 r.308                 1995.39        5.9238               
   305 r.309                       2             2               
   306 r.310                      -2         -1001               
   307 r.311                 994.615         5.011               
   308 r.312                    1000             2               
   309 r.313                   -1000         -1001               
   310 r.314                 1989.46        7.9363               
   311 r.315                  6.6481      -998.147               
   312 r.316                    1013      -995.785               
   313 r.317                -995.819      -998.147               
   314 r.318                  10.536      -995.785               
   315 r.319                    1001             2               
   316 r.320                   -1001         -1001               
   317 r.321                    3013         3.774               
   318 r.322                    1001             2               
   319 r.323                   -1001         -1001               
   320 r.324                 2010.54        6.2676               
   321 r.325                    1001             2               
   322 r.326                   -1001         -1001               
   323 r.327                 3009.23        2.5813               
   324 r.328                    1001             2               
   325 r.329                   -1001         -1001               
   326 r.330                 2010.54        5.2234               
   327 r.331                    1001             2               
   328 r.332                   -1001         -1001               
   329 r.333                 3004.59        3.3235               
   330 r.334                    1001             2               
   331 r.335                   -1001         -1001               
   332 r.336                 2004.18        6.0643               
   333 r.337                    1000             2               
   334 r.338                   -1000         -1001               
   335 r.339                 2011.04        2.6472               
   336 r.340                       2             2               
   337 r.341                      -2         -1001               
   338 r.342                  10.536        4.6122               
   339 r.343                    1000             2               
   340 r.344                   -1000         -1001               
   341 r.345                 2005.66         3.194               
   342 r.346                       2             2               
   343 r.347                      -2         -1001               
   344 r.348                  5.9238        5.9238               
   345 r.349                    1001             2               
   346 r.350                   -1001         -1001               
   347 r.351                 3001.26         5.011               
   348 r.352                    1001             2               
   349 r.353                   -1001         -1001               
   350 r.354                    2000        7.9363               
   351 r.355                -996.253      -996.253               
   352 r.356                -993.785      -993.785               
   353 r.357                -996.253      -996.253               
   354 r.358                -993.785      -993.785               

   No. Column name       Activity     Lower bound   Upper bound
------ ------------    ------------- ------------- -------------
     1 tt                    17.8235             0               
     2 s_1_9        *              1             0             1 
     3 s_1_1        *              1             0             1 
     4 t_1_1                       0             0               
     5 s_2_1        *              0             0             1 
     6 t_2_1                       0             0               
     7 s_1_2        *              1             0             1 
     8 t_1_2                   3.774             0               
     9 s_2_2        *              0             0             1 
    10 t_2_2                       0             0               
    11 s_1_3        *              1             0             1 
    12 t_1_3                  8.4164             0               
    13 s_2_3        *              0             0             1 
    14 t_2_3                  6.3553             0               
    15 s_1_4        *              0             0             1 
    16 t_1_4                 1001.97             0               
    17 s_2_4        *              1             0             1 
    18 t_2_4                       0             0               
    19 s_1_5        *              0             0             1 
    20 t_1_5                 1007.34             0               
    21 s_2_5        *              1             0             1 
    22 t_2_5                  4.6122             0               
    23 s_1_6        *              1             0             1 
    24 t_1_6                 11.7399             0               
    25 s_2_6        *              0             0             1 
    26 t_2_6                  10.536             0               
    27 s_1_7        *              1             0             1 
    28 t_1_7                  6.3553             0               
    29 s_2_7        *              0             0             1 
    30 t_2_7                       0             0               
    31 s_1_8        *              0             0             1 
    32 t_1_8                    1013             0               
    33 s_2_8        *              1             0             1 
    34 t_2_8                  10.536             0               
    35 t_1_9                 16.7509             0               
    36 s_2_9        *              0             0             1 
    37 t_2_9                 16.7509             0               
    38 r_1_1_2      *              0             0             1 
    39 u_1_1_2      *              0             0             1 
    40 r_2_1_2      *              1             0             1 
    41 u_2_1_2      *              0             0             1 
    42 r_1_1_3      *              0             0             1 
    43 u_1_1_3      *              0             0             1 
    44 r_2_1_3      *              1             0             1 
    45 u_2_1_3      *              0             0             1 
    46 r_1_1_4      *              1             0             1 
    47 u_1_1_4      *              0             0             1 
    48 r_2_1_4      *              1             0             1 
    49 u_2_1_4      *              0             0             1 
    50 r_1_1_5      *              1             0             1 
    51 u_1_1_5      *              0             0             1 
    52 r_2_1_5      *              1             0             1 
    53 u_2_1_5      *              0             0             1 
    54 r_1_1_6      *              0             0             1 
    55 u_1_1_6      *              0             0             1 
    56 r_2_1_6      *              1             0             1 
    57 u_2_1_6      *              0             0             1 
    58 r_1_1_7      *              0             0             1 
    59 u_1_1_7      *              0             0             1 
    60 r_2_1_7      *              1             0             1 
    61 u_2_1_7      *              0             0             1 
    62 r_1_1_8      *              1             0             1 
    63 u_1_1_8      *              0             0             1 
    64 r_2_1_8      *              1             0             1 
    65 u_2_1_8      *              0             0             1 
    66 r_1_2_4      *              1             0             1 
    67 u_1_2_4      *              0             0             1 
    68 r_2_2_4      *              1             0             1 
    69 u_2_2_4      *              0             0             1 
    70 r_1_2_5      *              1             0             1 
    71 u_1_2_5      *              0             0             1 
    72 r_2_2_5      *              1             0             1 
    73 u_2_2_5      *              0             0             1 
    74 r_1_2_6      *              0             0             1 
    75 u_1_2_6      *              0             0             1 
    76 r_2_2_6      *              1             0             1 
    77 u_2_2_6      *              0             0             1 
    78 r_1_2_7      *              0             0             1 
    79 u_1_2_7      *              0             0             1 
    80 r_2_2_7      *              1             0             1 
    81 u_2_2_7      *              0             0             1 
    82 r_1_2_8      *              1             0             1 
    83 u_1_2_8      *              0             0             1 
    84 r_2_2_8      *              1             0             1 
    85 u_2_2_8      *              0             0             1 
    86 r_1_3_4      *              1             0             1 
    87 u_1_3_4      *              0             0             1 
    88 r_2_3_4      *              1             0             1 
    89 u_2_3_4      *              0             0             1 
    90 r_1_3_5      *              1             0             1 
    91 u_1_3_5      *              0             0             1 
    92 r_2_3_5      *              1             0             1 
    93 u_2_3_5      *              0             0             1 
    94 r_1_3_6      *              0             0             1 
    95 u_1_3_6      *              0             0             1 
    96 r_2_3_6      *              1             0             1 
    97 u_2_3_6      *              0             0             1 
    98 r_1_3_7      *              0             0             1 
    99 u_1_3_7      *              1             0             1 
   100 r_2_3_7      *              1             0             1 
   101 u_2_3_7      *              0             0             1 
   102 r_1_3_8      *              1             0             1 
   103 u_1_3_8      *              0             0             1 
   104 r_2_3_8      *              1             0             1 
   105 u_2_3_8      *              0             0             1 
   106 r_1_4_7      *              1             0             1 
   107 u_1_4_7      *              0             0             1 
   108 r_2_4_7      *              1             0             1 
   109 u_2_4_7      *              0             0             1 
   110 r_1_4_8      *              1             0             1 
   111 u_1_4_8      *              0             0             1 
   112 r_2_4_8      *              0             0             1 
   113 u_2_4_8      *              0             0             1 
   114 r_1_5_7      *              1             0             1 
   115 u_1_5_7      *              0             0             1 
   116 r_2_5_7      *              1             0             1 
   117 u_2_5_7      *              0             0             1 
   118 r_1_5_8      *              1             0             1 
   119 u_1_5_8      *              0             0             1 
   120 r_2_5_8      *              0             0             1 
   121 u_2_5_8      *              0             0             1 
   122 r_1_6_7      *              0             0             1 
   123 u_1_6_7      *              1             0             1 
   124 r_2_6_7      *              1             0             1 
   125 u_2_6_7      *              0             0             1 
   126 r_1_6_8      *              1             0             1 
   127 u_1_6_8      *              0             0             1 
   128 r_2_6_8      *              1             0             1 
   129 u_2_6_8      *              0             0             1 

Integer feasibility conditions:

KKT.PE: max.abs.err = 4.55e-13 on row 181
        max.rel.err = 7.57e-17 on row 181
        High quality

KKT.PB: max.abs.err = 8.88e-16 on row 255
        max.rel.err = 2.05e-16 on row 255
        High quality

End of output
